NAME : Marjala
COMMENT : O-Mopsi
TYPE : TSP
DIMENSION : 11
EDGE_WEIGHT_TYPE : HVS
NODE_COORD_SECTION
1 29.6720383175209 62.632786314180784
2 29.659467227659 62.631499389144
3 29.671084289602 62.63022902838
4 29.66821893712563 62.63077997066699
5 29.649971456968 62.631137710159
6 29.66308728645 62.629191600617
7 29.64010327846 62.631526378862
8 29.641145567725 62.632916516977
9 29.646080327531 62.634132730667
10 29.6645961243287 62.6359345726789
11 29.655444502392 62.634020748483
EOF